177
300
240	1
239	1
238	3
236	1
235	3
234	1
233	1
232	5
231	2
230	1
228	2
227	1
226	2
224	2
223	3
222	5
221	1
220	2
219	2
218	2
216	3
215	2
213	3
212	3
211	1
210	1
209	5
207	2
206	1
205	2
204	1
203	2
202	1
201	3
200	1
199	2
197	3
196	1
195	1
194	2
193	4
192	3
190	3
189	4
188	4
187	3
186	3
185	2
184	5
183	2
182	1
180	2
178	3
176	1
174	3
173	2
172	3
170	2
169	1
168	3
167	3
166	1
165	1
164	2
163	2
161	2
159	3
158	4
157	1
156	2
154	1
153	2
152	1
151	5
150	3
148	2
146	2
145	1
144	1
143	1
142	2
140	2
139	3
138	2
137	2
136	1
133	3
132	4
130	5
129	3
128	1
127	2
126	2
125	1
124	2
123	3
122	2
121	4
120	7
119	1
117	1
116	3
115	2
114	4
113	1
112	2
111	2
108	2
106	3
105	1
104	1
103	3
102	2
100	1
99	6
98	2
97	1
96	2
95	5
94	1
93	1
92	2
90	5
89	3
88	3
87	2
86	1
85	2
84	3
83	1
82	2
81	2
80	2
78	2
77	5
75	3
74	1
73	1
72	3
71	1
70	2
69	2
68	2
67	3
66	2
65	1
64	6
63	3
61	4
60	5
59	3
58	1
57	2
56	3
55	4
54	2
53	2
52	2
51	2
49	2
48	2
47	3
46	2
45	2
44	1
42	3
41	2
39	1
38	1
37	1
36	2
35	1
34	1
33	2
32	4
31	1
30	1
